instances/knapsack/knapsack_general/knapsack_80_1_3.kp
42
80
9598

325 32.0 425 55.29
814 81.0 914 158.78
118 12.0 218 29.45
906 91.0 1006 161.72
64 6.0 164 26.49
408 41.0 508 51.02
661 66.0 761 130.04
448 45.0 548 63.28
362 36.0 462 69.5
801 80.0 901 164.64
107 11.0 207 33.86
941 94.0 1041 182.32
291 29.0 391 50.58
977 98.0 1077 160.46
637 64.0 737 87.47
991 99.0 1091 162.6
595 60.0 695 79.48
30 3.0 130 25.03
676 68.0 776 99.16
350 35.0 450 72.27
841 84.0 941 144.4
823 82.0 923 131.91
581 58.0 681 128.86
431 43.0 531 87.08
282 28.0 382 67.59
299 30.0 399 47.01
158 16.0 258 29.96
958 96.0 1058 111.72
74 7.0 174 31.05
847 85.0 947 150.92
454 45.0 554 60.19
256 26.0 356 52.15
19 2.0 119 18.11
694 69.0 794 117.68
946 95.0 1046 169.85
278 28.0 378 74.5
735 74.0 835 114.6
778 78.0 878 144.21
344 34.0 444 78.36
733 73.0 833 152.76
227 23.0 327 46.65
425 42.0 525 80.9
1 0.0 101 17.52
707 71.0 807 133.59
890 89.0 990 174.96
844 84.0 944 147.95
960 96.0 1060 130.94
492 49.0 592 94.95
18 2.0 118 17.84
505 50.0 605 102.47
250 25.0 350 51.0
170 17.0 270 42.46
952 95.0 1052 183.6
88 9.0 188 24.45
593 59.0 693 94.92
539 54.0 639 70.31
147 15.0 247 35.18
170 17.0 270 32.01
513 51.0 613 98.99
348 35.0 448 52.83
287 29.0 387 52.07
877 88.0 977 138.84
149 15.0 249 48.22
860 86.0 960 123.99
433 43.0 533 80.43
492 49.0 592 94.38
127 13.0 227 38.22
3 0.0 103 19.92
658 66.0 758 120.23
467 47.0 567 57.99
515 52.0 615 76.16
169 17.0 269 31.62
770 77.0 870 151.27
41 4.0 141 27.61
662 66.0 762 111.73
523 52.0 623 97.85
82 8.0 182 23.1
438 44.0 538 90.79
200 20.0 300 37.6
767 77.0 867 143.88

42
[984]

[[6, 0, 7, 1, 1, 9, 6, 5, 7, 6, 4, 1, 10, 1, 10, 6, 6, 10, 1, 3, 10, 12, 11, 3, 5, 4, 10, 4, 4, 0, 7, 0, 2, 10, 0, 1, 7, 12, 6, 6, 1, 6, 3, 8, 12, 7, 3, 1, 6, 2, 3, 1, 11, 5, 8, 2, 2, 3, 2, 4, 12, 3, 12, 11, 7, 1, 10, 9, 10, 7, 0, 6, 4, 4, 7, 10, 3, 6, 10, 5]]

[[602, 711, 195, 603, 181, 833, 450, 593, 575, 882, 208, 726, 464, 946, 730, 984, 320, 639, 89, 23, 174, 632, 394, 200, 415, 452, 403, 31, 399, 576, 843, 9, 64, 967, 487, 799, 28, 499, 653, 598, 320, 866, 502, 356, 295, 373, 645, 549, 887, 386, 679, 339, 877, 457, 854, 564, 664, 723, 462, 333, 524, 686, 962, 413, 654, 229, 876, 444, 311, 916, 424, 770, 175, 794, 355, 700, 959, 735, 509, 224]]
