instances/knapsack/knapsack_general/knapsack_80_1_3.lp
\ Model knapsack_80_1_3
\ LP format - for model browsing. Use MPS format to capture full model detail.
\ Signature: 0x203af9c3610c842f
Minimize
  - 425 y[0] - 914 y[1] - 218 y[2] - 1006 y[3] - 164 y[4] - 508 y[5]
   - 761 y[6] - 548 y[7] - 462 y[8] - 901 y[9] - 207 y[10] - 1041 y[11]
   - 391 y[12] - 1077 y[13] - 737 y[14] - 1091 y[15] - 695 y[16]
   - 130 y[17] - 776 y[18] - 450 y[19] - 941 y[20] - 923 y[21] - 681 y[22]
   - 531 y[23] - 382 y[24] - 399 y[25] - 258 y[26] - 1058 y[27] - 174 y[28]
   - 947 y[29] - 554 y[30] - 356 y[31] - 119 y[32] - 794 y[33] - 1046 y[34]
   - 378 y[35] - 835 y[36] - 878 y[37] - 444 y[38] - 833 y[39] - 327 y[40]
   - 525 y[41] - 101 y[42] - 807 y[43] - 990 y[44] - 944 y[45] - 1060 y[46]
   - 592 y[47] - 118 y[48] - 605 y[49] - 350 y[50] - 270 y[51] - 1052 y[52]
   - 188 y[53] - 693 y[54] - 639 y[55] - 247 y[56] - 270 y[57] - 613 y[58]
   - 448 y[59] - 387 y[60] - 977 y[61] - 249 y[62] - 960 y[63] - 533 y[64]
   - 592 y[65] - 227 y[66] - 103 y[67] - 758 y[68] - 567 y[69] - 615 y[70]
   - 269 y[71] - 870 y[72] - 141 y[73] - 762 y[74] - 623 y[75] - 182 y[76]
   - 538 y[77] - 300 y[78] - 867 y[79]
Subject To
 primal_upper: 325 y[0] + 814 y[1] + 118 y[2] + 906 y[3] + 64 y[4]
   + 408 y[5] + 661 y[6] + 448 y[7] + 362 y[8] + 801 y[9] + 107 y[10]
   + 941 y[11] + 291 y[12] + 977 y[13] + 637 y[14] + 991 y[15] + 595 y[16]
   + 30 y[17] + 676 y[18] + 350 y[19] + 841 y[20] + 823 y[21] + 581 y[22]
   + 431 y[23] + 282 y[24] + 299 y[25] + 158 y[26] + 958 y[27] + 74 y[28]
   + 847 y[29] + 454 y[30] + 256 y[31] + 19 y[32] + 694 y[33] + 946 y[34]
   + 278 y[35] + 735 y[36] + 778 y[37] + 344 y[38] + 733 y[39] + 227 y[40]
   + 425 y[41] + y[42] + 707 y[43] + 890 y[44] + 844 y[45] + 960 y[46]
   + 492 y[47] + 18 y[48] + 505 y[49] + 250 y[50] + 170 y[51] + 952 y[52]
   + 88 y[53] + 593 y[54] + 539 y[55] + 147 y[56] + 170 y[57] + 513 y[58]
   + 348 y[59] + 287 y[60] + 877 y[61] + 149 y[62] + 860 y[63] + 433 y[64]
   + 492 y[65] + 127 y[66] + 3 y[67] + 658 y[68] + 467 y[69] + 515 y[70]
   + 169 y[71] + 770 y[72] + 41 y[73] + 662 y[74] + 523 y[75] + 82 y[76]
   + 438 y[77] + 200 y[78] + 767 y[79] + 32 z[0] + 81 z[1] + 12 z[2]
   + 91 z[3] + 6 z[4] + 41 z[5] + 66 z[6] + 45 z[7] + 36 z[8] + 80 z[9]
   + 11 z[10] + 94 z[11] + 29 z[12] + 98 z[13] + 64 z[14] + 99 z[15]
   + 60 z[16] + 3 z[17] + 68 z[18] + 35 z[19] + 84 z[20] + 82 z[21]
   + 58 z[22] + 43 z[23] + 28 z[24] + 30 z[25] + 16 z[26] + 96 z[27]
   + 7 z[28] + 85 z[29] + 45 z[30] + 26 z[31] + 2 z[32] + 69 z[33]
   + 95 z[34] + 28 z[35] + 74 z[36] + 78 z[37] + 34 z[38] + 73 z[39]
   + 23 z[40] + 42 z[41] + 71 z[43] + 89 z[44] + 84 z[45] + 96 z[46]
   + 49 z[47] + 2 z[48] + 50 z[49] + 25 z[50] + 17 z[51] + 95 z[52]
   + 9 z[53] + 59 z[54] + 54 z[55] + 15 z[56] + 17 z[57] + 51 z[58]
   + 35 z[59] + 29 z[60] + 88 z[61] + 15 z[62] + 86 z[63] + 43 z[64]
   + 49 z[65] + 13 z[66] + 66 z[68] + 47 z[69] + 52 z[70] + 17 z[71]
   + 77 z[72] + 4 z[73] + 66 z[74] + 52 z[75] + 8 z[76] + 44 z[77]
   + 20 z[78] + 77 z[79] <= 9598
 primal_lower0: - 6 y[0] - 7 y[2] - y[3] - y[4] - 9 y[5] - 6 y[6] - 5 y[7]
   - 7 y[8] - 6 y[9] - 4 y[10] - y[11] - 10 y[12] - y[13] - 10 y[14]
   - 6 y[15] - 6 y[16] - 10 y[17] - y[18] - 3 y[19] - 10 y[20] - 12 y[21]
   - 11 y[22] - 3 y[23] - 5 y[24] - 4 y[25] - 10 y[26] - 4 y[27] - 4 y[28]
   - 7 y[30] - 2 y[32] - 10 y[33] - y[35] - 7 y[36] - 12 y[37] - 6 y[38]
   - 6 y[39] - y[40] - 6 y[41] - 3 y[42] - 8 y[43] - 12 y[44] - 7 y[45]
   - 3 y[46] - y[47] - 6 y[48] - 2 y[49] - 3 y[50] - y[51] - 11 y[52]
   - 5 y[53] - 8 y[54] - 2 y[55] - 2 y[56] - 3 y[57] - 2 y[58] - 4 y[59]
   - 12 y[60] - 3 y[61] - 12 y[62] - 11 y[63] - 7 y[64] - y[65] - 10 y[66]
   - 9 y[67] - 10 y[68] - 7 y[69] - 6 y[71] - 4 y[72] - 4 y[73] - 7 y[74]
   - 10 y[75] - 3 y[76] - 6 y[77] - 10 y[78] - 5 y[79] + 602 u[0]
   + 711 u[1] + 195 u[2] + 603 u[3] + 181 u[4] + 833 u[5] + 450 u[6]
   + 593 u[7] + 575 u[8] + 882 u[9] + 208 u[10] + 726 u[11] + 464 u[12]
   + 946 u[13] + 730 u[14] + 984 u[15] + 320 u[16] + 639 u[17] + 89 u[18]
   + 23 u[19] + 174 u[20] + 632 u[21] + 394 u[22] + 200 u[23] + 415 u[24]
   + 452 u[25] + 403 u[26] + 31 u[27] + 399 u[28] + 576 u[29] + 843 u[30]
   + 9 u[31] + 64 u[32] + 967 u[33] + 487 u[34] + 799 u[35] + 28 u[36]
   + 499 u[37] + 653 u[38] + 598 u[39] + 320 u[40] + 866 u[41] + 502 u[42]
   + 356 u[43] + 295 u[44] + 373 u[45] + 645 u[46] + 549 u[47] + 887 u[48]
   + 386 u[49] + 679 u[50] + 339 u[51] + 877 u[52] + 457 u[53] + 854 u[54]
   + 564 u[55] + 664 u[56] + 723 u[57] + 462 u[58] + 333 u[59] + 524 u[60]
   + 686 u[61] + 962 u[62] + 413 u[63] + 654 u[64] + 229 u[65] + 876 u[66]
   + 444 u[67] + 311 u[68] + 916 u[69] + 424 u[70] + 770 u[71] + 175 u[72]
   + 794 u[73] + 355 u[74] + 700 u[75] + 959 u[76] + 735 u[77] + 509 u[78]
   + 224 u[79] <= 984
 mccormick1[0]: - u[0] + z[0] <= 0
 mccormick1[1]: - u[1] + z[1] <= 0
 mccormick1[2]: - u[2] + z[2] <= 0
 mccormick1[3]: - u[3] + z[3] <= 0
 mccormick1[4]: - u[4] + z[4] <= 0
 mccormick1[5]: - u[5] + z[5] <= 0
 mccormick1[6]: - u[6] + z[6] <= 0
 mccormick1[7]: - u[7] + z[7] <= 0
 mccormick1[8]: - u[8] + z[8] <= 0
 mccormick1[9]: - u[9] + z[9] <= 0
 mccormick1[10]: - u[10] + z[10] <= 0
 mccormick1[11]: - u[11] + z[11] <= 0
 mccormick1[12]: - u[12] + z[12] <= 0
 mccormick1[13]: - u[13] + z[13] <= 0
 mccormick1[14]: - u[14] + z[14] <= 0
 mccormick1[15]: - u[15] + z[15] <= 0
 mccormick1[16]: - u[16] + z[16] <= 0
 mccormick1[17]: - u[17] + z[17] <= 0
 mccormick1[18]: - u[18] + z[18] <= 0
 mccormick1[19]: - u[19] + z[19] <= 0
 mccormick1[20]: - u[20] + z[20] <= 0
 mccormick1[21]: - u[21] + z[21] <= 0
 mccormick1[22]: - u[22] + z[22] <= 0
 mccormick1[23]: - u[23] + z[23] <= 0
 mccormick1[24]: - u[24] + z[24] <= 0
 mccormick1[25]: - u[25] + z[25] <= 0
 mccormick1[26]: - u[26] + z[26] <= 0
 mccormick1[27]: - u[27] + z[27] <= 0
 mccormick1[28]: - u[28] + z[28] <= 0
 mccormick1[29]: - u[29] + z[29] <= 0
 mccormick1[30]: - u[30] + z[30] <= 0
 mccormick1[31]: - u[31] + z[31] <= 0
 mccormick1[32]: - u[32] + z[32] <= 0
 mccormick1[33]: - u[33] + z[33] <= 0
 mccormick1[34]: - u[34] + z[34] <= 0
 mccormick1[35]: - u[35] + z[35] <= 0
 mccormick1[36]: - u[36] + z[36] <= 0
 mccormick1[37]: - u[37] + z[37] <= 0
 mccormick1[38]: - u[38] + z[38] <= 0
 mccormick1[39]: - u[39] + z[39] <= 0
 mccormick1[40]: - u[40] + z[40] <= 0
 mccormick1[41]: - u[41] + z[41] <= 0
 mccormick1[42]: - u[42] + z[42] <= 0
 mccormick1[43]: - u[43] + z[43] <= 0
 mccormick1[44]: - u[44] + z[44] <= 0
 mccormick1[45]: - u[45] + z[45] <= 0
 mccormick1[46]: - u[46] + z[46] <= 0
 mccormick1[47]: - u[47] + z[47] <= 0
 mccormick1[48]: - u[48] + z[48] <= 0
 mccormick1[49]: - u[49] + z[49] <= 0
 mccormick1[50]: - u[50] + z[50] <= 0
 mccormick1[51]: - u[51] + z[51] <= 0
 mccormick1[52]: - u[52] + z[52] <= 0
 mccormick1[53]: - u[53] + z[53] <= 0
 mccormick1[54]: - u[54] + z[54] <= 0
 mccormick1[55]: - u[55] + z[55] <= 0
 mccormick1[56]: - u[56] + z[56] <= 0
 mccormick1[57]: - u[57] + z[57] <= 0
 mccormick1[58]: - u[58] + z[58] <= 0
 mccormick1[59]: - u[59] + z[59] <= 0
 mccormick1[60]: - u[60] + z[60] <= 0
 mccormick1[61]: - u[61] + z[61] <= 0
 mccormick1[62]: - u[62] + z[62] <= 0
 mccormick1[63]: - u[63] + z[63] <= 0
 mccormick1[64]: - u[64] + z[64] <= 0
 mccormick1[65]: - u[65] + z[65] <= 0
 mccormick1[66]: - u[66] + z[66] <= 0
 mccormick1[67]: - u[67] + z[67] <= 0
 mccormick1[68]: - u[68] + z[68] <= 0
 mccormick1[69]: - u[69] + z[69] <= 0
 mccormick1[70]: - u[70] + z[70] <= 0
 mccormick1[71]: - u[71] + z[71] <= 0
 mccormick1[72]: - u[72] + z[72] <= 0
 mccormick1[73]: - u[73] + z[73] <= 0
 mccormick1[74]: - u[74] + z[74] <= 0
 mccormick1[75]: - u[75] + z[75] <= 0
 mccormick1[76]: - u[76] + z[76] <= 0
 mccormick1[77]: - u[77] + z[77] <= 0
 mccormick1[78]: - u[78] + z[78] <= 0
 mccormick1[79]: - u[79] + z[79] <= 0
 mccormick2[0]: - y[0] + z[0] <= 0
 mccormick2[1]: - y[1] + z[1] <= 0
 mccormick2[2]: - y[2] + z[2] <= 0
 mccormick2[3]: - y[3] + z[3] <= 0
 mccormick2[4]: - y[4] + z[4] <= 0
 mccormick2[5]: - y[5] + z[5] <= 0
 mccormick2[6]: - y[6] + z[6] <= 0
 mccormick2[7]: - y[7] + z[7] <= 0
 mccormick2[8]: - y[8] + z[8] <= 0
 mccormick2[9]: - y[9] + z[9] <= 0
 mccormick2[10]: - y[10] + z[10] <= 0
 mccormick2[11]: - y[11] + z[11] <= 0
 mccormick2[12]: - y[12] + z[12] <= 0
 mccormick2[13]: - y[13] + z[13] <= 0
 mccormick2[14]: - y[14] + z[14] <= 0
 mccormick2[15]: - y[15] + z[15] <= 0
 mccormick2[16]: - y[16] + z[16] <= 0
 mccormick2[17]: - y[17] + z[17] <= 0
 mccormick2[18]: - y[18] + z[18] <= 0
 mccormick2[19]: - y[19] + z[19] <= 0
 mccormick2[20]: - y[20] + z[20] <= 0
 mccormick2[21]: - y[21] + z[21] <= 0
 mccormick2[22]: - y[22] + z[22] <= 0
 mccormick2[23]: - y[23] + z[23] <= 0
 mccormick2[24]: - y[24] + z[24] <= 0
 mccormick2[25]: - y[25] + z[25] <= 0
 mccormick2[26]: - y[26] + z[26] <= 0
 mccormick2[27]: - y[27] + z[27] <= 0
 mccormick2[28]: - y[28] + z[28] <= 0
 mccormick2[29]: - y[29] + z[29] <= 0
 mccormick2[30]: - y[30] + z[30] <= 0
 mccormick2[31]: - y[31] + z[31] <= 0
 mccormick2[32]: - y[32] + z[32] <= 0
 mccormick2[33]: - y[33] + z[33] <= 0
 mccormick2[34]: - y[34] + z[34] <= 0
 mccormick2[35]: - y[35] + z[35] <= 0
 mccormick2[36]: - y[36] + z[36] <= 0
 mccormick2[37]: - y[37] + z[37] <= 0
 mccormick2[38]: - y[38] + z[38] <= 0
 mccormick2[39]: - y[39] + z[39] <= 0
 mccormick2[40]: - y[40] + z[40] <= 0
 mccormick2[41]: - y[41] + z[41] <= 0
 mccormick2[42]: - y[42] + z[42] <= 0
 mccormick2[43]: - y[43] + z[43] <= 0
 mccormick2[44]: - y[44] + z[44] <= 0
 mccormick2[45]: - y[45] + z[45] <= 0
 mccormick2[46]: - y[46] + z[46] <= 0
 mccormick2[47]: - y[47] + z[47] <= 0
 mccormick2[48]: - y[48] + z[48] <= 0
 mccormick2[49]: - y[49] + z[49] <= 0
 mccormick2[50]: - y[50] + z[50] <= 0
 mccormick2[51]: - y[51] + z[51] <= 0
 mccormick2[52]: - y[52] + z[52] <= 0
 mccormick2[53]: - y[53] + z[53] <= 0
 mccormick2[54]: - y[54] + z[54] <= 0
 mccormick2[55]: - y[55] + z[55] <= 0
 mccormick2[56]: - y[56] + z[56] <= 0
 mccormick2[57]: - y[57] + z[57] <= 0
 mccormick2[58]: - y[58] + z[58] <= 0
 mccormick2[59]: - y[59] + z[59] <= 0
 mccormick2[60]: - y[60] + z[60] <= 0
 mccormick2[61]: - y[61] + z[61] <= 0
 mccormick2[62]: - y[62] + z[62] <= 0
 mccormick2[63]: - y[63] + z[63] <= 0
 mccormick2[64]: - y[64] + z[64] <= 0
 mccormick2[65]: - y[65] + z[65] <= 0
 mccormick2[66]: - y[66] + z[66] <= 0
 mccormick2[67]: - y[67] + z[67] <= 0
 mccormick2[68]: - y[68] + z[68] <= 0
 mccormick2[69]: - y[69] + z[69] <= 0
 mccormick2[70]: - y[70] + z[70] <= 0
 mccormick2[71]: - y[71] + z[71] <= 0
 mccormick2[72]: - y[72] + z[72] <= 0
 mccormick2[73]: - y[73] + z[73] <= 0
 mccormick2[74]: - y[74] + z[74] <= 0
 mccormick2[75]: - y[75] + z[75] <= 0
 mccormick2[76]: - y[76] + z[76] <= 0
 mccormick2[77]: - y[77] + z[77] <= 0
 mccormick2[78]: - y[78] + z[78] <= 0
 mccormick2[79]: - y[79] + z[79] <= 0
 mccormick3[0]: y[0] + u[0] - z[0] <= 1
 mccormick3[1]: y[1] + u[1] - z[1] <= 1
 mccormick3[2]: y[2] + u[2] - z[2] <= 1
 mccormick3[3]: y[3] + u[3] - z[3] <= 1
 mccormick3[4]: y[4] + u[4] - z[4] <= 1
 mccormick3[5]: y[5] + u[5] - z[5] <= 1
 mccormick3[6]: y[6] + u[6] - z[6] <= 1
 mccormick3[7]: y[7] + u[7] - z[7] <= 1
 mccormick3[8]: y[8] + u[8] - z[8] <= 1
 mccormick3[9]: y[9] + u[9] - z[9] <= 1
 mccormick3[10]: y[10] + u[10] - z[10] <= 1
 mccormick3[11]: y[11] + u[11] - z[11] <= 1
 mccormick3[12]: y[12] + u[12] - z[12] <= 1
 mccormick3[13]: y[13] + u[13] - z[13] <= 1
 mccormick3[14]: y[14] + u[14] - z[14] <= 1
 mccormick3[15]: y[15] + u[15] - z[15] <= 1
 mccormick3[16]: y[16] + u[16] - z[16] <= 1
 mccormick3[17]: y[17] + u[17] - z[17] <= 1
 mccormick3[18]: y[18] + u[18] - z[18] <= 1
 mccormick3[19]: y[19] + u[19] - z[19] <= 1
 mccormick3[20]: y[20] + u[20] - z[20] <= 1
 mccormick3[21]: y[21] + u[21] - z[21] <= 1
 mccormick3[22]: y[22] + u[22] - z[22] <= 1
 mccormick3[23]: y[23] + u[23] - z[23] <= 1
 mccormick3[24]: y[24] + u[24] - z[24] <= 1
 mccormick3[25]: y[25] + u[25] - z[25] <= 1
 mccormick3[26]: y[26] + u[26] - z[26] <= 1
 mccormick3[27]: y[27] + u[27] - z[27] <= 1
 mccormick3[28]: y[28] + u[28] - z[28] <= 1
 mccormick3[29]: y[29] + u[29] - z[29] <= 1
 mccormick3[30]: y[30] + u[30] - z[30] <= 1
 mccormick3[31]: y[31] + u[31] - z[31] <= 1
 mccormick3[32]: y[32] + u[32] - z[32] <= 1
 mccormick3[33]: y[33] + u[33] - z[33] <= 1
 mccormick3[34]: y[34] + u[34] - z[34] <= 1
 mccormick3[35]: y[35] + u[35] - z[35] <= 1
 mccormick3[36]: y[36] + u[36] - z[36] <= 1
 mccormick3[37]: y[37] + u[37] - z[37] <= 1
 mccormick3[38]: y[38] + u[38] - z[38] <= 1
 mccormick3[39]: y[39] + u[39] - z[39] <= 1
 mccormick3[40]: y[40] + u[40] - z[40] <= 1
 mccormick3[41]: y[41] + u[41] - z[41] <= 1
 mccormick3[42]: y[42] + u[42] - z[42] <= 1
 mccormick3[43]: y[43] + u[43] - z[43] <= 1
 mccormick3[44]: y[44] + u[44] - z[44] <= 1
 mccormick3[45]: y[45] + u[45] - z[45] <= 1
 mccormick3[46]: y[46] + u[46] - z[46] <= 1
 mccormick3[47]: y[47] + u[47] - z[47] <= 1
 mccormick3[48]: y[48] + u[48] - z[48] <= 1
 mccormick3[49]: y[49] + u[49] - z[49] <= 1
 mccormick3[50]: y[50] + u[50] - z[50] <= 1
 mccormick3[51]: y[51] + u[51] - z[51] <= 1
 mccormick3[52]: y[52] + u[52] - z[52] <= 1
 mccormick3[53]: y[53] + u[53] - z[53] <= 1
 mccormick3[54]: y[54] + u[54] - z[54] <= 1
 mccormick3[55]: y[55] + u[55] - z[55] <= 1
 mccormick3[56]: y[56] + u[56] - z[56] <= 1
 mccormick3[57]: y[57] + u[57] - z[57] <= 1
 mccormick3[58]: y[58] + u[58] - z[58] <= 1
 mccormick3[59]: y[59] + u[59] - z[59] <= 1
 mccormick3[60]: y[60] + u[60] - z[60] <= 1
 mccormick3[61]: y[61] + u[61] - z[61] <= 1
 mccormick3[62]: y[62] + u[62] - z[62] <= 1
 mccormick3[63]: y[63] + u[63] - z[63] <= 1
 mccormick3[64]: y[64] + u[64] - z[64] <= 1
 mccormick3[65]: y[65] + u[65] - z[65] <= 1
 mccormick3[66]: y[66] + u[66] - z[66] <= 1
 mccormick3[67]: y[67] + u[67] - z[67] <= 1
 mccormick3[68]: y[68] + u[68] - z[68] <= 1
 mccormick3[69]: y[69] + u[69] - z[69] <= 1
 mccormick3[70]: y[70] + u[70] - z[70] <= 1
 mccormick3[71]: y[71] + u[71] - z[71] <= 1
 mccormick3[72]: y[72] + u[72] - z[72] <= 1
 mccormick3[73]: y[73] + u[73] - z[73] <= 1
 mccormick3[74]: y[74] + u[74] - z[74] <= 1
 mccormick3[75]: y[75] + u[75] - z[75] <= 1
 mccormick3[76]: y[76] + u[76] - z[76] <= 1
 mccormick3[77]: y[77] + u[77] - z[77] <= 1
 mccormick3[78]: y[78] + u[78] - z[78] <= 1
 mccormick3[79]: y[79] + u[79] - z[79] <= 1
Bounds
Binaries
 y[0] y[1] y[2] y[3] y[4] y[5] y[6] y[7] y[8] y[9] y[10] y[11] y[12] y[13]
 y[14] y[15] y[16] y[17] y[18] y[19] y[20] y[21] y[22] y[23] y[24] y[25]
 y[26] y[27] y[28] y[29] y[30] y[31] y[32] y[33] y[34] y[35] y[36] y[37]
 y[38] y[39] y[40] y[41] y[42] y[43] y[44] y[45] y[46] y[47] y[48] y[49]
 y[50] y[51] y[52] y[53] y[54] y[55] y[56] y[57] y[58] y[59] y[60] y[61]
 y[62] y[63] y[64] y[65] y[66] y[67] y[68] y[69] y[70] y[71] y[72] y[73]
 y[74] y[75] y[76] y[77] y[78] y[79] u[0] u[1] u[2] u[3] u[4] u[5] u[6]
 u[7] u[8] u[9] u[10] u[11] u[12] u[13] u[14] u[15] u[16] u[17] u[18] u[19]
 u[20] u[21] u[22] u[23] u[24] u[25] u[26] u[27] u[28] u[29] u[30] u[31]
 u[32] u[33] u[34] u[35] u[36] u[37] u[38] u[39] u[40] u[41] u[42] u[43]
 u[44] u[45] u[46] u[47] u[48] u[49] u[50] u[51] u[52] u[53] u[54] u[55]
 u[56] u[57] u[58] u[59] u[60] u[61] u[62] u[63] u[64] u[65] u[66] u[67]
 u[68] u[69] u[70] u[71] u[72] u[73] u[74] u[75] u[76] u[77] u[78] u[79]
 z[0] z[1] z[2] z[3] z[4] z[5] z[6] z[7] z[8] z[9] z[10] z[11] z[12] z[13]
 z[14] z[15] z[16] z[17] z[18] z[19] z[20] z[21] z[22] z[23] z[24] z[25]
 z[26] z[27] z[28] z[29] z[30] z[31] z[32] z[33] z[34] z[35] z[36] z[37]
 z[38] z[39] z[40] z[41] z[42] z[43] z[44] z[45] z[46] z[47] z[48] z[49]
 z[50] z[51] z[52] z[53] z[54] z[55] z[56] z[57] z[58] z[59] z[60] z[61]
 z[62] z[63] z[64] z[65] z[66] z[67] z[68] z[69] z[70] z[71] z[72] z[73]
 z[74] z[75] z[76] z[77] z[78] z[79]
End
